p cnf 25 110
-1 0
-8 0
-11 0
-3 0
-6 0
1 -1 0
10 -9 0
13 -12 0
4 -2 0
7 -5 0
9 -10 0
8 -8 0
24 -25 0
17 -16 0
20 -21 0
12 -13 0
25 -24 0
11 -11 0
19 -18 0
22 -23 0
2 -4 0
16 -17 0
18 -19 0
3 -3 0
14 -15 0
5 -7 0
21 -20 0
23 -22 0
15 -14 0
6 -6 0
1 10 13 4 -7 0
1 10 13 7 -4 0
1 10 4 7 -13 0
1 13 4 7 -10 0
10 13 4 7 -1 0
9 8 24 17 -20 0
9 8 24 20 -17 0
9 8 17 20 -24 0
9 24 17 20 -8 0
8 24 17 20 -9 0
12 25 11 19 -22 0
12 25 11 22 -19 0
12 25 19 22 -11 0
12 11 19 22 -25 0
25 11 19 22 -12 0
2 16 18 3 -14 0
2 16 18 14 -3 0
2 16 3 14 -18 0
2 18 3 14 -16 0
16 18 3 14 -2 0
5 21 23 15 -6 0
5 21 23 6 -15 0
5 21 15 6 -23 0
5 23 15 6 -21 0
21 23 15 6 -5 0
1 10 -13 -4 -7 0
1 13 -10 -4 -7 0
1 4 -10 -13 -7 0
1 7 -10 -13 -4 0
10 13 -1 -4 -7 0
10 4 -1 -13 -7 0
10 7 -1 -13 -4 0
13 4 -1 -10 -7 0
13 7 -1 -10 -4 0
4 7 -1 -10 -13 0
9 8 -24 -17 -20 0
9 24 -8 -17 -20 0
9 17 -8 -24 -20 0
9 20 -8 -24 -17 0
8 24 -9 -17 -20 0
8 17 -9 -24 -20 0
8 20 -9 -24 -17 0
24 17 -9 -8 -20 0
24 20 -9 -8 -17 0
17 20 -9 -8 -24 0
12 25 -11 -19 -22 0
12 11 -25 -19 -22 0
12 19 -25 -11 -22 0
12 22 -25 -11 -19 0
25 11 -12 -19 -22 0
25 19 -12 -11 -22 0
25 22 -12 -11 -19 0
11 19 -12 -25 -22 0
11 22 -12 -25 -19 0
19 22 -12 -25 -11 0
2 16 -18 -3 -14 0
2 18 -16 -3 -14 0
2 3 -16 -18 -14 0
2 14 -16 -18 -3 0
16 18 -2 -3 -14 0
16 3 -2 -18 -14 0
16 14 -2 -18 -3 0
18 3 -2 -16 -14 0
18 14 -2 -16 -3 0
3 14 -2 -16 -18 0
5 21 -23 -15 -6 0
5 23 -21 -15 -6 0
5 15 -21 -23 -6 0
5 6 -21 -23 -15 0
21 23 -5 -15 -6 0
21 15 -5 -23 -6 0
21 6 -5 -23 -15 0
23 15 -5 -21 -6 0
23 6 -5 -21 -15 0
15 6 -5 -21 -23 0
-1 -10 -13 -4 -7 0
-9 -8 -24 -17 -20 0
-12 -25 -11 -19 -22 0
-2 -16 -18 -3 -14 0
-5 -21 -23 -15 -6 0